c 
c G(n,p) graph
c graph gen seed     : 23453
c number of vertices : 30
c max number of edges: 500
c edge probability   : 0.600000
c data structure     : dense
c
c           Graph Stats
c number of vertices  : 30
c nonisolated vertices: 30
c number of edges     : 260
c edge density        : 0.597701
c max degree          : 23
c avg degree          : 17.33
c min degree          : 13
p col 30 260
e 1 2
e 1 3
e 1 4
e 1 6
e 1 7
e 1 11
e 1 13
e 1 16
e 1 17
e 1 18
e 1 19
e 1 22
e 1 24
e 1 25
e 1 26
e 1 27
e 1 28
e 1 29
e 2 3
e 2 5
e 2 8
e 2 9
e 2 10
e 2 11
e 2 12
e 2 13
e 2 14
e 2 15
e 2 17
e 2 18
e 2 19
e 2 20
e 2 21
e 2 22
e 2 23
e 2 24
e 2 26
e 2 27
e 2 29
e 3 4
e 3 5
e 3 6
e 3 7
e 3 8
e 3 9
e 3 12
e 3 13
e 3 14
e 3 15
e 3 17
e 3 19
e 3 22
e 3 25
e 3 26
e 3 28
e 3 29
e 3 30
e 4 5
e 4 6
e 4 8
e 4 9
e 4 11
e 4 13
e 4 14
e 4 16
e 4 17
e 4 18
e 4 19
e 4 20
e 4 22
e 4 24
e 4 26
e 4 27
e 4 29
e 5 6
e 5 7
e 5 8
e 5 10
e 5 13
e 5 17
e 5 19
e 5 20
e 5 22
e 5 23
e 5 24
e 5 28
e 5 29
e 5 30
e 6 7
e 6 9
e 6 10
e 6 12
e 6 13
e 6 14
e 6 15
e 6 16
e 6 17
e 6 18
e 6 20
e 6 21
e 6 22
e 6 24
e 6 25
e 6 26
e 6 28
e 6 29
e 6 30
e 7 10
e 7 11
e 7 12
e 7 14
e 7 15
e 7 17
e 7 20
e 7 21
e 7 26
e 7 27
e 8 9
e 8 11
e 8 12
e 8 13
e 8 17
e 8 18
e 8 20
e 8 21
e 8 22
e 8 23
e 8 25
e 8 27
e 8 28
e 8 29
e 8 30
e 9 10
e 9 13
e 9 14
e 9 15
e 9 16
e 9 17
e 9 19
e 9 20
e 9 21
e 9 22
e 9 23
e 9 28
e 9 29
e 10 14
e 10 16
e 10 17
e 10 18
e 10 20
e 10 23
e 10 24
e 10 27
e 10 28
e 10 30
e 11 12
e 11 13
e 11 14
e 11 15
e 11 16
e 11 17
e 11 19
e 11 20
e 11 22
e 11 24
e 11 29
e 11 30
e 12 13
e 12 16
e 12 19
e 12 20
e 12 22
e 12 23
e 12 24
e 12 26
e 12 27
e 12 28
e 13 16
e 13 17
e 13 18
e 13 20
e 13 21
e 13 24
e 13 25
e 13 28
e 13 30
e 14 17
e 14 18
e 14 20
e 14 21
e 14 23
e 14 24
e 14 26
e 14 29
e 14 30
e 15 17
e 15 18
e 15 19
e 15 20
e 15 21
e 15 23
e 15 24
e 15 26
e 15 28
e 15 29
e 15 30
e 16 21
e 16 25
e 16 28
e 16 29
e 16 30
e 17 24
e 17 25
e 17 27
e 17 29
e 18 19
e 18 20
e 18 21
e 18 22
e 18 23
e 18 24
e 18 25
e 18 28
e 18 29
e 18 30
e 19 20
e 19 21
e 19 22
e 19 23
e 19 27
e 19 28
e 20 22
e 20 23
e 20 24
e 20 25
e 20 27
e 20 28
e 20 29
e 20 30
e 21 24
e 21 26
e 21 27
e 21 30
e 22 28
e 22 29
e 23 24
e 23 25
e 23 26
e 23 27
e 23 28
e 23 29
e 24 25
e 24 28
e 25 26
e 25 28
e 25 30
e 26 30
e 27 29
e 28 30
e 29 30
